data;

param num_top:=3;

#nodes and edges of the physical network
param n := 10;

set E := (1,2) (1,3) (1,7) (2,4) (2,7) (3,5) (4,8) (5,6) (5,7) (6,7) (6,9) (7,8) (7,9) (8,10) (9,10) ;

#nodes and edges of the virtual networks
set Nl[1] := 6 10 4 5 ;
set Nl[2] := 9 7 6 1 ;
set Nl[3] := 7 8 9 5 2 ;

set El[1] := (6,10) (4,10) (4,5) (5,6) ;
set El[2] := (7,9) (6,7) (1,6) (1,9) (6,9) (1,7) ;
set El[3] := (7,8) (8,9) (5,9) (2,5) (2,7) ;
